nK = 960;
nT = 6;
nI = 14;
L = 29;
TT = 220;
np = 1;
nc = 3;
b = [40, 20, 66, 37, 36, 48, 36, 63, 62, 46, 69, 45, 28, 59];
d = [110, 142, 119, 77, 94, 140, 63, 114, 148, 103, 130, 98, 144, 143];
m = [1.3, 2.1, 1.4, 2.1, 1.5, 1.2, 2.2, 1.5, 2.2, 1.7, 2.3, 2, 2.4, 1.6];
pt = [0.22, 0.23, 0.22, 0.26, 0.29, 0.23];
st = [11, 11.73, 8.8, 11.44, 13.05, 10.81];
arc = {<1, 0, 1, 1, 0, 0, 0, [1, 1, 1, 1, 1, 1]>, <2, 1, 2, 1, 0, 0, 0, [1, 1, 1, 1, 1, 1]>, <3, 2, 3, 1, 0, 0, 0, [1, 1, 1, 1, 1, 1]>, <4, 3, 4, 1, 0, 0, 0, [1, 1, 1, 1, 1, 1]>, <5, 4, 5, 1, 0, 0, 0, [1, 1, 1, 1, 1, 1]>, <6, 5, 6, 1, 0, 0, 0, [1, 1, 1, 1, 1, 1]>, <7, 6, 7, 1, 0, 0, 0, [1, 1, 1, 1, 1, 1]>, <8, 7, 8, 1, 0, 0, 0, [1, 1, 1, 1, 1, 1]>, <9, 8, 9, 1, 0, 0, 0, [1, 1, 1, 1, 1, 1]>, <10, 9, 10, 1, 0, 0, 0, [1, 1, 1, 1, 1, 1]>, <11, 10, 11, 1, 0, 0, 0, [1, 1, 1, 1, 1, 1]>, <12, 11, 12, 1, 0, 0, 0, [1, 1, 1, 1, 1, 1]>, <13, 12, 13, 1, 0, 0, 0, [1, 1, 1, 1, 1, 1]>, <14, 13, 14, 1, 0, 0, 0, [1, 1, 1, 1, 1, 1]>, <15, 14, 15, 1, 0, 0, 0, [1, 1, 1, 1, 1, 1]>, <16, 15, 16, 1, 0, 0, 0, [1, 1, 1, 1, 1, 1]>, <17, 16, 17, 1, 0, 0, 0, [1, 1, 1, 1, 1, 1]>, <18, 17, 18, 1, 0, 0, 0, [1, 1, 1, 1, 1, 1]>, <19, 18, 19, 1, 0, 0, 0, [1, 1, 1, 1, 1, 1]>, <20, 19, 20, 1, 0, 0, 0, [1, 1, 1, 1, 1, 1]>, <21, 20, 21, 1, 0, 0, 0, [1, 1, 1, 1, 1, 1]>, <22, 21, 22, 1, 0, 0, 0, [1, 1, 1, 1, 1, 1]>, <23, 22, 23, 1, 0, 0, 0, [1, 1, 1, 1, 1, 1]>, <24, 23, 24, 1, 0, 0, 0, [1, 1, 1, 1, 1, 1]>, <25, 24, 25, 1, 0, 0, 0, [1, 1, 1, 1, 1, 1]>, <26, 25, 26, 1, 0, 0, 0, [1, 1, 1, 1, 1, 1]>, <27, 26, 27, 1, 0, 0, 0, [1, 1, 1, 1, 1, 1]>, <28, 27, 28, 1, 0, 0, 0, [1, 1, 1, 1, 1, 1]>, <29, 28, 29, 1, 0, 0, 0, [1, 1, 1, 1, 1, 1]>, <30, 0, 12, 12, 1, 0, 1, [0, 0, 1, 1, 1, 1]>, <31, 1, 13, 12, 1, 0, 1, [0, 0, 1, 1, 1, 1]>, <32, 2, 14, 12, 1, 0, 1, [0, 0, 1, 1, 1, 1]>, <33, 3, 15, 12, 1, 0, 1, [0, 0, 1, 1, 1, 1]>, <34, 4, 16, 12, 1, 0, 1, [0, 0, 1, 1, 1, 1]>, <35, 5, 17, 12, 1, 0, 1, [0, 0, 1, 1, 1, 1]>, <36, 8, 20, 12, 1, 0, 1, [0, 0, 1, 1, 1, 1]>, <37, 9, 21, 12, 1, 0, 1, [0, 0, 1, 1, 1, 1]>, <38, 10, 22, 12, 1, 0, 1, [0, 0, 1, 1, 1, 1]>, <39, 11, 23, 12, 1, 0, 1, [0, 0, 1, 1, 1, 1]>, <40, 12, 24, 12, 1, 0, 1, [0, 0, 1, 1, 1, 1]>, <41, 13, 25, 12, 1, 0, 1, [0, 0, 1, 1, 1, 1]>, <42, 14, 26, 12, 1, 0, 1, [0, 0, 1, 1, 1, 1]>, <43, 15, 27, 12, 1, 0, 1, [0, 0, 1, 1, 1, 1]>, <44, 16, 28, 12, 1, 0, 1, [0, 0, 1, 1, 1, 1]>, <45, 17, 29, 12, 1, 0, 1, [0, 0, 1, 1, 1, 1]>, <46, 4, 12, 8, 2, 0, 0, [1, 1, 0, 0, 1, 1]>, <47, 5, 13, 8, 2, 0, 0, [1, 1, 0, 0, 1, 1]>, <48, 11, 19, 8, 2, 0, 0, [1, 1, 0, 0, 1, 1]>, <49, 12, 20, 8, 2, 0, 0, [1, 1, 0, 0, 1, 1]>, <50, 16, 24, 8, 2, 0, 0, [1, 1, 0, 0, 1, 1]>, <51, 17, 25, 8, 2, 0, 0, [1, 1, 0, 0, 1, 1]>, <52, 18, 26, 8, 2, 0, 0, [1, 1, 0, 0, 1, 1]>, <53, 19, 27, 8, 2, 0, 0, [1, 1, 0, 0, 1, 1]>, <54, 20, 28, 8, 2, 0, 0, [1, 1, 0, 0, 1, 1]>, <55, 1, 12, 11, 3, 0, 0, [1, 0, 0, 1, 1, 1]>, <56, 2, 13, 11, 3, 0, 0, [1, 0, 0, 1, 1, 1]>, <57, 3, 14, 11, 3, 0, 0, [1, 0, 0, 1, 1, 1]>, <58, 4, 15, 11, 3, 0, 0, [1, 0, 0, 1, 1, 1]>, <59, 5, 16, 11, 3, 0, 0, [1, 0, 0, 1, 1, 1]>, <60, 9, 20, 11, 3, 0, 0, [1, 0, 0, 1, 1, 1]>, <61, 10, 21, 11, 3, 0, 0, [1, 0, 0, 1, 1, 1]>, <62, 11, 22, 11, 3, 0, 0, [1, 0, 0, 1, 1, 1]>, <63, 12, 23, 11, 3, 0, 0, [1, 0, 0, 1, 1, 1]>, <64, 13, 24, 11, 3, 0, 0, [1, 0, 0, 1, 1, 1]>, <65, 14, 25, 11, 3, 0, 0, [1, 0, 0, 1, 1, 1]>, <66, 15, 26, 11, 3, 0, 0, [1, 0, 0, 1, 1, 1]>, <67, 16, 27, 11, 3, 0, 0, [1, 0, 0, 1, 1, 1]>, <68, 17, 28, 11, 3, 0, 0, [1, 0, 0, 1, 1, 1]>, <69, 18, 29, 11, 3, 0, 0, [1, 0, 0, 1, 1, 1]>, <70, 2, 12, 10, 4, 1, 0, [0, 1, 1, 1, 1, 0]>, <71, 3, 13, 10, 4, 1, 0, [0, 1, 1, 1, 1, 0]>, <72, 4, 14, 10, 4, 1, 0, [0, 1, 1, 1, 1, 0]>, <73, 5, 15, 10, 4, 1, 0, [0, 1, 1, 1, 1, 0]>, <74, 10, 20, 10, 4, 1, 0, [0, 1, 1, 1, 1, 0]>, <75, 11, 21, 10, 4, 1, 0, [0, 1, 1, 1, 1, 0]>, <76, 12, 22, 10, 4, 1, 0, [0, 1, 1, 1, 1, 0]>, <77, 14, 24, 10, 4, 1, 0, [0, 1, 1, 1, 1, 0]>, <78, 15, 25, 10, 4, 1, 0, [0, 1, 1, 1, 1, 0]>, <79, 16, 26, 10, 4, 1, 0, [0, 1, 1, 1, 1, 0]>, <80, 17, 27, 10, 4, 1, 0, [0, 1, 1, 1, 1, 0]>, <81, 18, 28, 10, 4, 1, 0, [0, 1, 1, 1, 1, 0]>, <82, 19, 29, 10, 4, 1, 0, [0, 1, 1, 1, 1, 0]>, <83, 3, 12, 9, 5, 0, 0, [0, 0, 1, 1, 1, 1]>, <84, 4, 13, 9, 5, 0, 0, [0, 0, 1, 1, 1, 1]>, <85, 5, 14, 9, 5, 0, 0, [0, 0, 1, 1, 1, 1]>, <86, 11, 20, 9, 5, 0, 0, [0, 0, 1, 1, 1, 1]>, <87, 12, 21, 9, 5, 0, 0, [0, 0, 1, 1, 1, 1]>, <88, 15, 24, 9, 5, 0, 0, [0, 0, 1, 1, 1, 1]>, <89, 16, 25, 9, 5, 0, 0, [0, 0, 1, 1, 1, 1]>, <90, 17, 26, 9, 5, 0, 0, [0, 0, 1, 1, 1, 1]>, <91, 18, 27, 9, 5, 0, 0, [0, 0, 1, 1, 1, 1]>, <92, 19, 28, 9, 5, 0, 0, [0, 0, 1, 1, 1, 1]>, <93, 20, 29, 9, 5, 0, 0, [0, 0, 1, 1, 1, 1]>, <94, 0, 12, 12, 6, 0, 1, [1, 0, 0, 1, 1, 1]>, <95, 1, 13, 12, 6, 0, 1, [1, 0, 0, 1, 1, 1]>, <96, 2, 14, 12, 6, 0, 1, [1, 0, 0, 1, 1, 1]>, <97, 3, 15, 12, 6, 0, 1, [1, 0, 0, 1, 1, 1]>, <98, 4, 16, 12, 6, 0, 1, [1, 0, 0, 1, 1, 1]>, <99, 5, 17, 12, 6, 0, 1, [1, 0, 0, 1, 1, 1]>, <100, 8, 20, 12, 6, 0, 1, [1, 0, 0, 1, 1, 1]>, <101, 9, 21, 12, 6, 0, 1, [1, 0, 0, 1, 1, 1]>, <102, 10, 22, 12, 6, 0, 1, [1, 0, 0, 1, 1, 1]>, <103, 11, 23, 12, 6, 0, 1, [1, 0, 0, 1, 1, 1]>, <104, 12, 24, 12, 6, 0, 1, [1, 0, 0, 1, 1, 1]>, <105, 13, 25, 12, 6, 0, 1, [1, 0, 0, 1, 1, 1]>, <106, 14, 26, 12, 6, 0, 1, [1, 0, 0, 1, 1, 1]>, <107, 15, 27, 12, 6, 0, 1, [1, 0, 0, 1, 1, 1]>, <108, 16, 28, 12, 6, 0, 1, [1, 0, 0, 1, 1, 1]>, <109, 17, 29, 12, 6, 0, 1, [1, 0, 0, 1, 1, 1]>, <110, 2, 12, 10, 7, 0, 0, [0, 0, 1, 1, 1, 1]>, <111, 3, 13, 10, 7, 0, 0, [0, 0, 1, 1, 1, 1]>, <112, 4, 14, 10, 7, 0, 0, [0, 0, 1, 1, 1, 1]>, <113, 5, 15, 10, 7, 0, 0, [0, 0, 1, 1, 1, 1]>, <114, 10, 20, 10, 7, 0, 0, [0, 0, 1, 1, 1, 1]>, <115, 11, 21, 10, 7, 0, 0, [0, 0, 1, 1, 1, 1]>, <116, 12, 22, 10, 7, 0, 0, [0, 0, 1, 1, 1, 1]>, <117, 14, 24, 10, 7, 0, 0, [0, 0, 1, 1, 1, 1]>, <118, 15, 25, 10, 7, 0, 0, [0, 0, 1, 1, 1, 1]>, <119, 16, 26, 10, 7, 0, 0, [0, 0, 1, 1, 1, 1]>, <120, 17, 27, 10, 7, 0, 0, [0, 0, 1, 1, 1, 1]>, <121, 18, 28, 10, 7, 0, 0, [0, 0, 1, 1, 1, 1]>, <122, 19, 29, 10, 7, 0, 0, [0, 0, 1, 1, 1, 1]>, <123, 0, 12, 12, 8, 0, 1, [0, 1, 1, 1, 1, 0]>, <124, 1, 13, 12, 8, 0, 1, [0, 1, 1, 1, 1, 0]>, <125, 2, 14, 12, 8, 0, 1, [0, 1, 1, 1, 1, 0]>, <126, 3, 15, 12, 8, 0, 1, [0, 1, 1, 1, 1, 0]>, <127, 4, 16, 12, 8, 0, 1, [0, 1, 1, 1, 1, 0]>, <128, 5, 17, 12, 8, 0, 1, [0, 1, 1, 1, 1, 0]>, <129, 8, 20, 12, 8, 0, 1, [0, 1, 1, 1, 1, 0]>, <130, 9, 21, 12, 8, 0, 1, [0, 1, 1, 1, 1, 0]>, <131, 10, 22, 12, 8, 0, 1, [0, 1, 1, 1, 1, 0]>, <132, 11, 23, 12, 8, 0, 1, [0, 1, 1, 1, 1, 0]>, <133, 12, 24, 12, 8, 0, 1, [0, 1, 1, 1, 1, 0]>, <134, 13, 25, 12, 8, 0, 1, [0, 1, 1, 1, 1, 0]>, <135, 14, 26, 12, 8, 0, 1, [0, 1, 1, 1, 1, 0]>, <136, 15, 27, 12, 8, 0, 1, [0, 1, 1, 1, 1, 0]>, <137, 16, 28, 12, 8, 0, 1, [0, 1, 1, 1, 1, 0]>, <138, 17, 29, 12, 8, 0, 1, [0, 1, 1, 1, 1, 0]>, <139, 2, 12, 10, 9, 1, 0, [1, 1, 0, 0, 1, 1]>, <140, 3, 13, 10, 9, 1, 0, [1, 1, 0, 0, 1, 1]>, <141, 4, 14, 10, 9, 1, 0, [1, 1, 0, 0, 1, 1]>, <142, 5, 15, 10, 9, 1, 0, [1, 1, 0, 0, 1, 1]>, <143, 10, 20, 10, 9, 1, 0, [1, 1, 0, 0, 1, 1]>, <144, 11, 21, 10, 9, 1, 0, [1, 1, 0, 0, 1, 1]>, <145, 12, 22, 10, 9, 1, 0, [1, 1, 0, 0, 1, 1]>, <146, 14, 24, 10, 9, 1, 0, [1, 1, 0, 0, 1, 1]>, <147, 15, 25, 10, 9, 1, 0, [1, 1, 0, 0, 1, 1]>, <148, 16, 26, 10, 9, 1, 0, [1, 1, 0, 0, 1, 1]>, <149, 17, 27, 10, 9, 1, 0, [1, 1, 0, 0, 1, 1]>, <150, 18, 28, 10, 9, 1, 0, [1, 1, 0, 0, 1, 1]>, <151, 19, 29, 10, 9, 1, 0, [1, 1, 0, 0, 1, 1]>, <152, 0, 12, 12, 10, 0, 0, [1, 1, 1, 0, 0, 1]>, <153, 1, 13, 12, 10, 0, 0, [1, 1, 1, 0, 0, 1]>, <154, 2, 14, 12, 10, 0, 0, [1, 1, 1, 0, 0, 1]>, <155, 3, 15, 12, 10, 0, 0, [1, 1, 1, 0, 0, 1]>, <156, 4, 16, 12, 10, 0, 0, [1, 1, 1, 0, 0, 1]>, <157, 5, 17, 12, 10, 0, 0, [1, 1, 1, 0, 0, 1]>, <158, 8, 20, 12, 10, 0, 0, [1, 1, 1, 0, 0, 1]>, <159, 9, 21, 12, 10, 0, 0, [1, 1, 1, 0, 0, 1]>, <160, 10, 22, 12, 10, 0, 0, [1, 1, 1, 0, 0, 1]>, <161, 11, 23, 12, 10, 0, 0, [1, 1, 1, 0, 0, 1]>, <162, 12, 24, 12, 10, 0, 0, [1, 1, 1, 0, 0, 1]>, <163, 13, 25, 12, 10, 0, 0, [1, 1, 1, 0, 0, 1]>, <164, 14, 26, 12, 10, 0, 0, [1, 1, 1, 0, 0, 1]>, <165, 15, 27, 12, 10, 0, 0, [1, 1, 1, 0, 0, 1]>, <166, 16, 28, 12, 10, 0, 0, [1, 1, 1, 0, 0, 1]>, <167, 17, 29, 12, 10, 0, 0, [1, 1, 1, 0, 0, 1]>, <168, 4, 11, 7, 11, 0, 1, [1, 1, 0, 0, 1, 1]>, <169, 5, 12, 7, 11, 0, 1, [1, 1, 0, 0, 1, 1]>, <170, 11, 18, 7, 11, 0, 1, [1, 1, 0, 0, 1, 1]>, <171, 12, 19, 7, 11, 0, 1, [1, 1, 0, 0, 1, 1]>, <172, 17, 24, 7, 11, 0, 1, [1, 1, 0, 0, 1, 1]>, <173, 18, 25, 7, 11, 0, 1, [1, 1, 0, 0, 1, 1]>, <174, 19, 26, 7, 11, 0, 1, [1, 1, 0, 0, 1, 1]>, <175, 20, 27, 7, 11, 0, 1, [1, 1, 0, 0, 1, 1]>, <176, 4, 12, 8, 12, 1, 0, [0, 0, 1, 1, 1, 1]>, <177, 5, 13, 8, 12, 1, 0, [0, 0, 1, 1, 1, 1]>, <178, 11, 19, 8, 12, 1, 0, [0, 0, 1, 1, 1, 1]>, <179, 12, 20, 8, 12, 1, 0, [0, 0, 1, 1, 1, 1]>, <180, 16, 24, 8, 12, 1, 0, [0, 0, 1, 1, 1, 1]>, <181, 17, 25, 8, 12, 1, 0, [0, 0, 1, 1, 1, 1]>, <182, 18, 26, 8, 12, 1, 0, [0, 0, 1, 1, 1, 1]>, <183, 19, 27, 8, 12, 1, 0, [0, 0, 1, 1, 1, 1]>, <184, 20, 28, 8, 12, 1, 0, [0, 0, 1, 1, 1, 1]>, <185, 3, 12, 9, 13, 0, 1, [1, 1, 1, 0, 0, 1]>, <186, 4, 13, 9, 13, 0, 1, [1, 1, 1, 0, 0, 1]>, <187, 5, 14, 9, 13, 0, 1, [1, 1, 1, 0, 0, 1]>, <188, 11, 20, 9, 13, 0, 1, [1, 1, 1, 0, 0, 1]>, <189, 12, 21, 9, 13, 0, 1, [1, 1, 1, 0, 0, 1]>, <190, 15, 24, 9, 13, 0, 1, [1, 1, 1, 0, 0, 1]>, <191, 16, 25, 9, 13, 0, 1, [1, 1, 1, 0, 0, 1]>, <192, 17, 26, 9, 13, 0, 1, [1, 1, 1, 0, 0, 1]>, <193, 18, 27, 9, 13, 0, 1, [1, 1, 1, 0, 0, 1]>, <194, 19, 28, 9, 13, 0, 1, [1, 1, 1, 0, 0, 1]>, <195, 20, 29, 9, 13, 0, 1, [1, 1, 1, 0, 0, 1]>, <196, 2, 12, 10, 14, 0, 1, [1, 1, 0, 0, 1, 1]>, <197, 3, 13, 10, 14, 0, 1, [1, 1, 0, 0, 1, 1]>, <198, 4, 14, 10, 14, 0, 1, [1, 1, 0, 0, 1, 1]>, <199, 5, 15, 10, 14, 0, 1, [1, 1, 0, 0, 1, 1]>, <200, 10, 20, 10, 14, 0, 1, [1, 1, 0, 0, 1, 1]>, <201, 11, 21, 10, 14, 0, 1, [1, 1, 0, 0, 1, 1]>, <202, 12, 22, 10, 14, 0, 1, [1, 1, 0, 0, 1, 1]>, <203, 14, 24, 10, 14, 0, 1, [1, 1, 0, 0, 1, 1]>, <204, 15, 25, 10, 14, 0, 1, [1, 1, 0, 0, 1, 1]>, <205, 16, 26, 10, 14, 0, 1, [1, 1, 0, 0, 1, 1]>, <206, 17, 27, 10, 14, 0, 1, [1, 1, 0, 0, 1, 1]>, <207, 18, 28, 10, 14, 0, 1, [1, 1, 0, 0, 1, 1]>, <208, 19, 29, 10, 14, 0, 1, [1, 1, 0, 0, 1, 1]>};
